(set-logic ALL)
(declare-fun seed0_T_1 () Int)
(declare-fun seed0_T_2 () Bool)
(declare-fun seed0_T_3 () Bool)
(declare-fun seed0_var_0xINPUT_460813 () String)
(assert (and (or (>= seed0_T_1 (str.len seed0_var_0xINPUT_460813)) (or (= (* seed0_T_1 seed0_T_1) (mod seed0_T_1 seed0_T_1)) (<= (+ seed0_T_1 (- 416)) (mod seed0_T_1 seed0_T_1)))) (or (= seed0_T_2 (= seed0_T_1 0)) (or (<= (+ seed0_T_1 (- 816)) (mod seed0_T_1 seed0_T_1)) (distinct (* seed0_T_1 seed0_T_1) (+ seed0_T_1 (- 228))))) (or (= seed0_T_3 (not seed0_T_2)) (or (distinct (- seed0_T_1 (- 188)) (* seed0_T_1 seed0_T_1)) (= (mod seed0_T_1 seed0_T_1) (div seed0_T_1 seed0_T_1)))) (or seed0_T_3 (< (* seed0_T_1 seed0_T_1) (div seed0_T_1 seed0_T_1)))))
(check-sat)
(exit)